(set-logic HORN)
(set-info :source |
    Benchmark: C_VC
    Output by Princess (http://www.philipp.ruemmer.org/princess.shtml)
|)
(set-info :status unsat)
(declare-heap Heap Addr HeapObject
 defObj
 ((HeapObject 0)) (
  (
   (O_Int (getInt Int))
   (O_UInt (getUInt Int))
   (O_Addr (getAddr Addr))
   (defObj)
  )
))
(declare-fun inv_main11 (Heap Int Int Int Int Int AddrRange) Bool)
(declare-fun inv_main13 (Heap Int Int Int Int Int AddrRange) Bool)
(declare-fun inv_main14 (Heap Int Int Int Int Int AddrRange) Bool)
(declare-fun inv_main18 (Heap Int Int Int Int Int AddrRange) Bool)
(declare-fun inv_main19 (Heap Int Int Int Int Int AddrRange) Bool)
(declare-fun inv_main2 (Heap) Bool)
(declare-fun inv_main24 (Heap Int Int Int Int Int AddrRange) Bool)
(declare-fun inv_main26 (Heap Int Int Int Int Int AddrRange Int) Bool)
(declare-fun inv_main29 (Heap Int Int Int Int Int AddrRange) Bool)
(assert (forall ((var0 Heap)) (or (not (= var0 emptyHeap)) (inv_main2 var0))))
(assert (forall ((var0 Int) (var1 AddrRange) (var2 Int) (var3 Int) (var4 Int) (var5 Int) (var6 Heap) (var7 Int) (var8 Int) (var9 AddrRange) (var10 Int) (var11 Int) (var12 Int) (var13 Int) (var14 Int) (var15 Heap)) (or (not (and (inv_main11 var15 var14 var13 var12 var11 var10 var9) (and (and (<= 0 (+ (+ var8 (* (- 1) (+ var7 1))) (- 1))) (and (and (is-O_Int (read var15 (nthAddrRange var9 var12))) (is-O_Int (read var15 (nthAddrRange var9 var12)))) (and (and (and (and (and (and (= var6 (write var15 (nthAddrRange var9 var12) (O_Int var5))) (= var8 var14)) (= var4 var13)) (= var7 var12)) (= var3 var11)) (= var2 var10)) (= var1 var9)))) (= var0 (+ var7 1))))) (inv_main11 var6 var8 var4 var0 var3 var2 var1))))
(assert (forall ((var0 Int) (var1 AddrRange) (var2 Int) (var3 Int) (var4 Int) (var5 Int) (var6 Int) (var7 Int) (var8 Int) (var9 Int) (var10 Int) (var11 Int) (var12 Heap) (var13 Int) (var14 Heap)) (or (not (and (inv_main2 var14) (and (and (and (<= 0 (+ var13 (- 1))) (and (and (and (and (and (and (= var12 (newBatchHeap (batchAlloc emptyHeap (O_Int var11) var10))) (= var13 var10)) (= var9 var8)) (= var7 var6)) (= var5 var4)) (= var3 var2)) (= var1 (newAddrRange (batchAlloc emptyHeap (O_Int var11) var10))))) (<= 0 var10)) (= var0 0)))) (inv_main11 var12 var13 var9 var0 var5 var3 var1))))
(assert (forall ((var0 AddrRange) (var1 Int) (var2 Int) (var3 Int) (var4 Int) (var5 Int) (var6 Heap)) (or (not (and (inv_main18 var6 var5 var4 var3 var2 var1 var0) (not (<= 0 var4)))) (inv_main19 var6 var5 var4 var3 var2 var1 var0))))
(assert (forall ((var0 AddrRange) (var1 Int) (var2 Int) (var3 Int) (var4 Int) (var5 Int) (var6 Heap) (var7 Int) (var8 AddrRange) (var9 Int) (var10 Int) (var11 Int) (var12 Int) (var13 Int) (var14 Heap) (var15 Int) (var16 AddrRange) (var17 Int) (var18 Int) (var19 Int) (var20 Int) (var21 Int) (var22 Heap)) (or (not (and (inv_main18 var22 var21 var20 var19 var18 var17 var16) (and (and (= var15 0) (and (and (<= 0 var20) (is-O_Int (read var22 (nthAddrRange var16 var20)))) (and (and (and (and (and (and (and (= var14 var22) (= var13 var21)) (= var12 var20)) (= var11 var19)) (= var10 var18)) (= var9 var17)) (= var8 var16)) (= var7 (getInt (read var22 (nthAddrRange var16 var20))))))) (and (and (and (and (and (and (and (= var6 var14) (= var5 var13)) (= var4 var12)) (= var3 var11)) (= var2 var10)) (= var1 var9)) (= var0 var8)) (or (and (<= 0 (+ (+ var7 (* (- 1) var9)) (- 1))) (= var15 1)) (and (not (<= 0 (+ (+ var7 (* (- 1) var9)) (- 1)))) (= var15 0))))))) (inv_main19 var6 var5 var4 var3 var2 var1 var0))))
(assert (forall ((var0 AddrRange) (var1 Int) (var2 Int) (var3 Int) (var4 Int) (var5 Heap) (var6 Int) (var7 AddrRange) (var8 Int) (var9 Int) (var10 Int) (var11 Int) (var12 Int) (var13 Heap) (var14 Int) (var15 Int) (var16 AddrRange) (var17 Int) (var18 Int) (var19 Int) (var20 Int) (var21 Int) (var22 Heap)) (or (not (and (inv_main18 var22 var21 var20 var19 var18 var17 var16) (and (<= 0 (+ (+ 2 (* (- 1) var15)) (- 1))) (and (and (not (= var14 0)) (and (and (<= 0 var20) (is-O_Int (read var22 (nthAddrRange var16 var20)))) (and (and (and (and (and (and (and (= var13 var22) (= var12 var21)) (= var11 var20)) (= var10 var19)) (= var9 var18)) (= var8 var17)) (= var7 var16)) (= var6 (getInt (read var22 (nthAddrRange var16 var20))))))) (and (and (and (and (and (and (and (= var5 var13) (= var4 var12)) (= var15 var11)) (= var3 var10)) (= var2 var9)) (= var1 var8)) (= var0 var7)) (or (and (<= 0 (+ (+ var6 (* (- 1) var8)) (- 1))) (= var14 1)) (and (not (<= 0 (+ (+ var6 (* (- 1) var8)) (- 1)))) (= var14 0)))))))) (inv_main24 var5 var4 var15 var3 var2 var1 var0))))
(assert (forall ((var0 Int) (var1 Int) (var2 AddrRange) (var3 Int) (var4 Int) (var5 Int) (var6 Int) (var7 Int) (var8 Heap) (var9 AddrRange) (var10 Int) (var11 Int) (var12 Int) (var13 Int) (var14 Int) (var15 Heap)) (or (not (and (inv_main14 var15 var14 var13 var12 var11 var10 var9) (and (and (is-O_Int (read var15 (nthAddrRange var9 var12))) (and (and (and (and (and (and (and (= var8 var15) (= var7 var14)) (= var6 var13)) (= var5 var12)) (= var4 var11)) (= var3 var10)) (= var2 var9)) (= var1 (getInt (read var15 (nthAddrRange var9 var12)))))) (= var0 (+ var5 (- 1)))))) (inv_main18 var8 var7 var0 var5 var4 var1 var2))))
(assert (forall ((var0 Int) (var1 AddrRange) (var2 Int) (var3 Int) (var4 Int) (var5 Int) (var6 Int) (var7 Heap) (var8 Int) (var9 AddrRange) (var10 Int) (var11 Int) (var12 Int) (var13 Int) (var14 Int) (var15 Heap)) (or (not (and (inv_main26 var15 var14 var13 var12 var11 var10 var9 var8) (and (and (and (is-O_Int (read var15 (nthAddrRange var9 (+ var13 1)))) (is-O_Int (read var15 (nthAddrRange var9 (+ var13 1))))) (and (and (and (and (and (and (= var7 (write var15 (nthAddrRange var9 (+ var13 1)) (O_Int var8))) (= var6 var14)) (= var5 var13)) (= var4 var12)) (= var3 var11)) (= var2 var10)) (= var1 var9))) (= var0 (+ var5 (- 1)))))) (inv_main18 var7 var6 var0 var4 var3 var2 var1))))
(assert (forall ((var0 Int) (var1 AddrRange) (var2 Int) (var3 Int) (var4 Int) (var5 Int) (var6 Heap) (var7 Int) (var8 AddrRange) (var9 Int) (var10 Int) (var11 Int) (var12 Int) (var13 Int) (var14 Heap) (var15 Int) (var16 Int) (var17 AddrRange) (var18 Int) (var19 Int) (var20 Int) (var21 Int) (var22 Int) (var23 Heap)) (or (not (and (inv_main18 var23 var22 var21 var20 var19 var18 var17) (and (and (not (<= 0 (+ (+ 2 (* (- 1) var16)) (- 1)))) (and (and (not (= var15 0)) (and (and (<= 0 var21) (is-O_Int (read var23 (nthAddrRange var17 var21)))) (and (and (and (and (and (and (and (= var14 var23) (= var13 var22)) (= var12 var21)) (= var11 var20)) (= var10 var19)) (= var9 var18)) (= var8 var17)) (= var7 (getInt (read var23 (nthAddrRange var17 var21))))))) (and (and (and (and (and (and (and (= var6 var14) (= var5 var13)) (= var16 var12)) (= var4 var11)) (= var3 var10)) (= var2 var9)) (= var1 var8)) (or (and (<= 0 (+ (+ var7 (* (- 1) var9)) (- 1))) (= var15 1)) (and (not (<= 0 (+ (+ var7 (* (- 1) var9)) (- 1)))) (= var15 0)))))) (= var0 (+ var16 (- 1)))))) (inv_main18 var6 var5 var0 var4 var3 var2 var1))))
(assert (forall ((var0 Int) (var1 AddrRange) (var2 Int) (var3 Int) (var4 Int) (var5 Int) (var6 Int) (var7 Heap)) (or (not (and (inv_main24 var7 var6 var5 var4 var3 var2 var1) (and (is-O_Int (read var7 (nthAddrRange var1 var5))) (= var0 (getInt (read var7 (nthAddrRange var1 var5))))))) (inv_main26 var7 var6 var5 var4 var3 var2 var1 var0))))
(assert (forall ((var0 Int) (var1 AddrRange) (var2 Int) (var3 Int) (var4 Int) (var5 Int) (var6 Int) (var7 Heap) (var8 AddrRange) (var9 Int) (var10 Int) (var11 Int) (var12 Int) (var13 Int) (var14 Heap)) (or (not (and (inv_main19 var14 var13 var12 var11 var10 var9 var8) (and (and (and (is-O_Int (read var14 (nthAddrRange var8 (+ var12 1)))) (is-O_Int (read var14 (nthAddrRange var8 (+ var12 1))))) (and (and (and (and (and (and (= var7 (write var14 (nthAddrRange var8 (+ var12 1)) (O_Int var9))) (= var6 var13)) (= var5 var12)) (= var4 var11)) (= var3 var10)) (= var2 var9)) (= var1 var8))) (= var0 (+ var4 1))))) (inv_main13 var7 var6 var5 var0 var3 var2 var1))))
(assert (forall ((var0 Int) (var1 AddrRange) (var2 Int) (var3 Int) (var4 Int) (var5 Int) (var6 Heap) (var7 Int) (var8 Int) (var9 AddrRange) (var10 Int) (var11 Int) (var12 Int) (var13 Int) (var14 Int) (var15 Heap)) (or (not (and (inv_main11 var15 var14 var13 var12 var11 var10 var9) (and (and (not (<= 0 (+ (+ var8 (* (- 1) (+ var7 1))) (- 1)))) (and (and (is-O_Int (read var15 (nthAddrRange var9 var12))) (is-O_Int (read var15 (nthAddrRange var9 var12)))) (and (and (and (and (and (and (= var6 (write var15 (nthAddrRange var9 var12) (O_Int var5))) (= var8 var14)) (= var4 var13)) (= var7 var12)) (= var3 var11)) (= var2 var10)) (= var1 var9)))) (= var0 1)))) (inv_main13 var6 var8 var4 var0 var3 var2 var1))))
(assert (forall ((var0 Int) (var1 AddrRange) (var2 Int) (var3 Int) (var4 Int) (var5 Int) (var6 Int) (var7 Int) (var8 Int) (var9 Int) (var10 Int) (var11 Int) (var12 Heap) (var13 Int) (var14 Heap)) (or (not (and (inv_main2 var14) (and (and (and (not (<= 0 (+ var13 (- 1)))) (and (and (and (and (and (and (= var12 (newBatchHeap (batchAlloc emptyHeap (O_Int var11) var10))) (= var13 var10)) (= var9 var8)) (= var7 var6)) (= var5 var4)) (= var3 var2)) (= var1 (newAddrRange (batchAlloc emptyHeap (O_Int var11) var10))))) (<= 0 var10)) (= var0 1)))) (inv_main13 var12 var13 var9 var0 var5 var3 var1))))
(assert (forall ((var0 AddrRange) (var1 Int) (var2 Int) (var3 Int) (var4 Int) (var5 Int) (var6 Heap)) (or (not (and (inv_main13 var6 var5 var4 var3 var2 var1 var0) (<= 0 (+ (+ var5 (* (- 1) var3)) (- 1))))) (inv_main14 var6 var5 var4 var3 var2 var1 var0))))
(assert (forall ((var0 Int) (var1 AddrRange) (var2 Int) (var3 Int) (var4 Int) (var5 Int) (var6 Int) (var7 Heap)) (or (not (and (inv_main13 var7 var6 var5 var4 var3 var2 var1) (and (and (<= 0 (+ (+ var6 (- 1)) (- 1))) (not (<= 0 (+ (+ var6 (* (- 1) var4)) (- 1))))) (= var0 1)))) (inv_main29 var7 var6 var5 var4 var0 var2 var1))))
(assert (forall ((var0 Int) (var1 AddrRange) (var2 Int) (var3 Int) (var4 Int) (var5 Int) (var6 Int) (var7 Heap)) (or (not (and (inv_main29 var7 var6 var5 var4 var3 var2 var1) (and (and (<= 0 (+ (+ var6 (* (- 1) (+ var3 1))) (- 1))) (and (is-O_Int (read var7 (nthAddrRange var1 (+ var3 (- 1))))) (is-O_Int (read var7 (nthAddrRange var1 var3))))) (= var0 (+ var3 1))))) (inv_main29 var7 var6 var5 var4 var0 var2 var1))))
(assert (forall ((var0 AddrRange) (var1 Int) (var2 Int) (var3 Int) (var4 Int) (var5 Int) (var6 Heap)) (not (and (inv_main11 var6 var5 var4 var3 var2 var1 var0) (not (is-O_Int (read var6 (nthAddrRange var0 var3))))))))
(assert (forall ((var0 AddrRange) (var1 Int) (var2 Int) (var3 Int) (var4 Int) (var5 Int) (var6 Heap)) (not (and (inv_main11 var6 var5 var4 var3 var2 var1 var0) (and (is-O_Int (read var6 (nthAddrRange var0 var3))) (not (within var0 (nthAddrRange var0 var3))))))))
(assert (forall ((var0 AddrRange) (var1 Int) (var2 Int) (var3 Int) (var4 Int) (var5 Int) (var6 Heap)) (not (and (inv_main11 var6 var5 var4 var3 var2 var1 var0) (and (is-O_Int (read var6 (nthAddrRange var0 var3))) (not (is-O_Int (read var6 (nthAddrRange var0 var3)))))))))
(assert (forall ((var0 AddrRange) (var1 Int) (var2 Int) (var3 Int) (var4 Int) (var5 Int) (var6 Heap)) (not (and (inv_main14 var6 var5 var4 var3 var2 var1 var0) (not (is-O_Int (read var6 (nthAddrRange var0 var3))))))))
(assert (forall ((var0 AddrRange) (var1 Int) (var2 Int) (var3 Int) (var4 Int) (var5 Int) (var6 Heap)) (not (and (inv_main14 var6 var5 var4 var3 var2 var1 var0) (and (is-O_Int (read var6 (nthAddrRange var0 var3))) (not (within var0 (nthAddrRange var0 var3))))))))
(assert (forall ((var0 AddrRange) (var1 Int) (var2 Int) (var3 Int) (var4 Int) (var5 Int) (var6 Heap)) (not (and (inv_main18 var6 var5 var4 var3 var2 var1 var0) (and (<= 0 var4) (not (is-O_Int (read var6 (nthAddrRange var0 var4)))))))))
(assert (forall ((var0 AddrRange) (var1 Int) (var2 Int) (var3 Int) (var4 Int) (var5 Int) (var6 Heap)) (not (and (inv_main18 var6 var5 var4 var3 var2 var1 var0) (and (and (<= 0 var4) (is-O_Int (read var6 (nthAddrRange var0 var4)))) (not (within var0 (nthAddrRange var0 var4))))))))
(assert (forall ((var0 AddrRange) (var1 Int) (var2 Int) (var3 Int) (var4 Int) (var5 Int) (var6 Heap)) (not (and (inv_main24 var6 var5 var4 var3 var2 var1 var0) (not (is-O_Int (read var6 (nthAddrRange var0 var4))))))))
(assert (forall ((var0 AddrRange) (var1 Int) (var2 Int) (var3 Int) (var4 Int) (var5 Int) (var6 Heap)) (not (and (inv_main24 var6 var5 var4 var3 var2 var1 var0) (and (is-O_Int (read var6 (nthAddrRange var0 var4))) (not (within var0 (nthAddrRange var0 var4))))))))
(assert (forall ((var0 Int) (var1 AddrRange) (var2 Int) (var3 Int) (var4 Int) (var5 Int) (var6 Int) (var7 Heap)) (not (and (inv_main26 var7 var6 var5 var4 var3 var2 var1 var0) (not (is-O_Int (read var7 (nthAddrRange var1 (+ var5 1)))))))))
(assert (forall ((var0 Int) (var1 AddrRange) (var2 Int) (var3 Int) (var4 Int) (var5 Int) (var6 Int) (var7 Heap)) (not (and (inv_main26 var7 var6 var5 var4 var3 var2 var1 var0) (and (is-O_Int (read var7 (nthAddrRange var1 (+ var5 1)))) (not (within var1 (nthAddrRange var1 (+ var5 1)))))))))
(assert (forall ((var0 Int) (var1 AddrRange) (var2 Int) (var3 Int) (var4 Int) (var5 Int) (var6 Int) (var7 Heap)) (not (and (inv_main26 var7 var6 var5 var4 var3 var2 var1 var0) (and (is-O_Int (read var7 (nthAddrRange var1 (+ var5 1)))) (not (is-O_Int (read var7 (nthAddrRange var1 (+ var5 1))))))))))
(assert (forall ((var0 AddrRange) (var1 Int) (var2 Int) (var3 Int) (var4 Int) (var5 Int) (var6 Heap)) (not (and (inv_main19 var6 var5 var4 var3 var2 var1 var0) (not (is-O_Int (read var6 (nthAddrRange var0 (+ var4 1)))))))))
(assert (forall ((var0 AddrRange) (var1 Int) (var2 Int) (var3 Int) (var4 Int) (var5 Int) (var6 Heap)) (not (and (inv_main19 var6 var5 var4 var3 var2 var1 var0) (and (is-O_Int (read var6 (nthAddrRange var0 (+ var4 1)))) (not (within var0 (nthAddrRange var0 (+ var4 1)))))))))
(assert (forall ((var0 AddrRange) (var1 Int) (var2 Int) (var3 Int) (var4 Int) (var5 Int) (var6 Heap)) (not (and (inv_main19 var6 var5 var4 var3 var2 var1 var0) (and (is-O_Int (read var6 (nthAddrRange var0 (+ var4 1)))) (not (is-O_Int (read var6 (nthAddrRange var0 (+ var4 1))))))))))
(assert (forall ((var0 AddrRange) (var1 Int) (var2 Int) (var3 Int) (var4 Int) (var5 Int) (var6 Heap)) (not (and (inv_main29 var6 var5 var4 var3 var2 var1 var0) (not (is-O_Int (read var6 (nthAddrRange var0 (+ var2 (- 1))))))))))
(assert (forall ((var0 AddrRange) (var1 Int) (var2 Int) (var3 Int) (var4 Int) (var5 Int) (var6 Heap)) (not (and (inv_main29 var6 var5 var4 var3 var2 var1 var0) (not (within var0 (nthAddrRange var0 (+ var2 (- 1)))))))))
(assert (forall ((var0 AddrRange) (var1 Int) (var2 Int) (var3 Int) (var4 Int) (var5 Int) (var6 Heap)) (not (and (inv_main29 var6 var5 var4 var3 var2 var1 var0) (not (is-O_Int (read var6 (nthAddrRange var0 var2))))))))
(assert (forall ((var0 AddrRange) (var1 Int) (var2 Int) (var3 Int) (var4 Int) (var5 Int) (var6 Heap)) (not (and (inv_main29 var6 var5 var4 var3 var2 var1 var0) (not (within var0 (nthAddrRange var0 var2)))))))
(assert (forall ((var0 AddrRange) (var1 Int) (var2 Int) (var3 Int) (var4 Int) (var5 Int) (var6 Heap)) (not (and (inv_main29 var6 var5 var4 var3 var2 var1 var0) (not (is-O_Int (read var6 (nthAddrRange var0 (+ var2 (- 1))))))))))
(assert (forall ((var0 AddrRange) (var1 Int) (var2 Int) (var3 Int) (var4 Int) (var5 Int) (var6 Heap)) (not (and (inv_main29 var6 var5 var4 var3 var2 var1 var0) (and (is-O_Int (read var6 (nthAddrRange var0 (+ var2 (- 1))))) (not (within var0 (nthAddrRange var0 (+ var2 (- 1))))))))))
(assert (forall ((var0 AddrRange) (var1 Int) (var2 Int) (var3 Int) (var4 Int) (var5 Int) (var6 Heap)) (not (and (inv_main29 var6 var5 var4 var3 var2 var1 var0) (and (is-O_Int (read var6 (nthAddrRange var0 (+ var2 (- 1))))) (not (is-O_Int (read var6 (nthAddrRange var0 var2)))))))))
(assert (forall ((var0 AddrRange) (var1 Int) (var2 Int) (var3 Int) (var4 Int) (var5 Int) (var6 Heap)) (not (and (inv_main29 var6 var5 var4 var3 var2 var1 var0) (and (and (is-O_Int (read var6 (nthAddrRange var0 (+ var2 (- 1))))) (is-O_Int (read var6 (nthAddrRange var0 var2)))) (not (within var0 (nthAddrRange var0 var2))))))))
(assert (forall ((var0 AddrRange) (var1 Int) (var2 Int) (var3 Int) (var4 Int) (var5 Int) (var6 Heap)) (not (and (inv_main29 var6 var5 var4 var3 var2 var1 var0) (and (and (is-O_Int (read var6 (nthAddrRange var0 (+ var2 (- 1))))) (is-O_Int (read var6 (nthAddrRange var0 var2)))) (not (<= 0 (+ (getInt (read var6 (nthAddrRange var0 var2))) (* (- 1) (getInt (read var6 (nthAddrRange var0 (+ var2 (- 1))))))))))))))
(check-sat)
